Instance0
Objective;Best_Integer;Best_Bound
262.6193;639.6325;262.6193
288.8460;639.6325;Cuts:9
306.2558;462.8177;Cuts:17
319.6011;462.8177;Cuts:13
326.0777;462.8177;Cuts:10
331.6434;423.2225;Cuts:8
332.2318;415.0905;LiftProj:3
333.8915;415.0905;Cuts:6
335.5163;415.0905;LiftProj:6
336.2571;415.0905;Cuts:8
337.1697;415.0905;LiftProj:3
339.7969;415.0905;LiftProj:7
343.5498;415.0905;Cuts:7
344.6909;415.0905;LiftProj:5
347.7214;415.0905;Cuts:6
348.8759;415.0905;LiftProj:7
349.6879;415.0905;LiftProj:3
350.3843;415.0905;LiftProj:5
351.6220;415.0905;LiftProj:4
352.7275;415.0905;LiftProj:6
353.4775;415.0905;LiftProj:6
353.8419;415.0905;LiftProj:5
354.4812;415.0905;LiftProj:6
355.7488;415.0905;LiftProj:5
356.0706;415.0905;LiftProj:5
357.2257;415.0905;LiftProj:7
357.8086;415.0905;LiftProj:4
358.6130;415.0905;LiftProj:6
358.7864;415.0905;LiftProj:4
359.4767;415.0905;LiftProj:4
360.7243;415.0905;LiftProj:5
361.4657;415.0905;LiftProj:5
361.6571;415.0905;LiftProj:5
361.9117;415.0905;LiftProj:4
361.9217;415.0905;LiftProj:3
362.4635;415.0905;LiftProj:4
362.7646;415.0905;LiftProj:4
363.0801;415.0905;LiftProj:6
363.7107;415.0905;LiftProj:5
364.0448;415.0905;LiftProj:8
365.2319;415.0905;LiftProj:4
365.7195;415.0905;LiftProj:5
365.8250;415.0905;LiftProj:3
366.9018;415.0905;369.2419
CPXPARAM_MIP_Cuts_Gomory-Disjunctive-LiftProj:Gomory 24
CPXPARAM_MIP_Cuts_Gomory-Disjunctive-LiftProj:Disjunctive 1
CPXPARAM_MIP_Cuts_Gomory-Disjunctive-LiftProj:LiftProj 0
Instance1
Objective;Best_Integer;Best_Bound
integral;262.6193;262.6193
CPXPARAM_MIP_Cuts_Gomory-Disjunctive-LiftProj:Gomory 0
CPXPARAM_MIP_Cuts_Gomory-Disjunctive-LiftProj:Disjunctive 0
CPXPARAM_MIP_Cuts_Gomory-Disjunctive-LiftProj:LiftProj 0
Instance2
Objective;Best_Integer;Best_Bound
269.4766;639.6325;269.4766
279.5547;639.6325;Cuts:7
307.4952;583.4780;Cuts:15
323.4704;415.0905;Cuts:17
343.1014;415.0905;Cuts:8
348.8573;415.0905;Cuts:7
350.4838;415.0905;Cuts:6
351.1341;415.0905;LiftProj:4
352.0519;415.0905;Cuts:5
352.5936;415.0905;LiftProj:5
353.1583;415.0905;Cuts:7
353.4610;415.0905;LiftProj:6
356.5517;415.0905;LiftProj:5
360.3905;415.0905;LiftProj:12
360.7293;415.0905;LiftProj:5
362.0366;415.0905;LiftProj:6
362.9869;415.0905;Cuts:12
365.3874;415.0905;LiftProj:4
365.4862;415.0905;LiftProj:3
366.1913;415.0905;LiftProj:5
367.2279;415.0905;LiftProj:4
368.9075;415.0905;LiftProj:5
369.4686;415.0905;LiftProj:6
369.7150;415.0905;LiftProj:4
369.9947;415.0905;LiftProj:7
370.4940;415.0905;LiftProj:5
371.4517;415.0905;LiftProj:9
371.6111;415.0905;LiftProj:6
371.9411;415.0905;LiftProj:7
372.4865;415.0905;LiftProj:6
373.8413;415.0905;LiftProj:6
374.5888;415.0905;LiftProj:4
375.5303;415.0905;LiftProj:7
376.2302;415.0905;LiftProj:6
377.3014;415.0905;LiftProj:4
377.8764;415.0905;LiftProj:6
378.4928;415.0905;LiftProj:4
378.6591;415.0905;LiftProj:5
379.7869;415.0905;LiftProj:5
380.1466;415.0905;LiftProj:7
381.8606;415.0905;LiftProj:4
382.0273;415.0905;LiftProj:4
382.4608;415.0905;LiftProj:6
383.0273;415.0905;LiftProj:4
383.1453;415.0905;LiftProj:5
383.2358;415.0905;LiftProj:6
386.9092;415.0905;386.9601
CPXPARAM_MIP_Cuts_Gomory-Disjunctive-LiftProj:Gomory 24
CPXPARAM_MIP_Cuts_Gomory-Disjunctive-LiftProj:Disjunctive 0
CPXPARAM_MIP_Cuts_Gomory-Disjunctive-LiftProj:LiftProj 0
Instance3
Objective;Best_Integer;Best_Bound
314.8220;883.5817;314.8220
integral;314.8876;Fract:1
cutoff;314.8876;40
CPXPARAM_MIP_Cuts_Gomory-Disjunctive-LiftProj:Gomory 0
CPXPARAM_MIP_Cuts_Gomory-Disjunctive-LiftProj:Disjunctive 1
CPXPARAM_MIP_Cuts_Gomory-Disjunctive-LiftProj:LiftProj 0
Instance4
Objective;Best_Integer;Best_Bound
405.5114;634.5912;405.5114
410.2300;634.5912;Cuts:8
417.3839;455.9855;Cuts:14
422.1563;455.9855;Cuts:10
425.0162;455.9855;Cuts:11
425.3043;455.9855;Cuts:5
425.6416;455.9855;LiftProj:3
425.9089;455.9855;LiftProj:3
426.2821;455.9855;Cuts:4
426.4311;455.9855;LiftProj:3
426.5164;455.9855;LiftProj:3
426.6890;455.9855;LiftProj:3
426.7734;455.9855;LiftProj:3
435.2029;441.1644;LiftProj:2
435.4755;441.1644;LiftProj:3
435.6125;441.1644;Cuts:5
436.2566;441.1644;LiftProj:3
436.3798;441.1644;LiftProj:2
436.5126;441.1644;LiftProj:5
436.6830;441.1644;LiftProj:5
437.2340;441.1644;LiftProj:5
437.2916;441.1644;LiftProj:2
437.6121;441.1644;LiftProj:3
437.9200;441.1644;LiftProj:3
438.2600;441.1644;LiftProj:3
438.7273;441.1644;LiftProj:6
439.4970;441.1644;LiftProj:3
439.5308;441.1644;LiftProj:1
cutoff;439.5308;277
CPXPARAM_MIP_Cuts_Gomory-Disjunctive-LiftProj:Gomory 17
CPXPARAM_MIP_Cuts_Gomory-Disjunctive-LiftProj:Disjunctive 0
CPXPARAM_MIP_Cuts_Gomory-Disjunctive-LiftProj:LiftProj 0
Instance5
Objective;Best_Integer;Best_Bound
405.5114;693.8542;405.5114
integral;405.9187;405.9187
CPXPARAM_MIP_Cuts_Gomory-Disjunctive-LiftProj:Gomory 0
CPXPARAM_MIP_Cuts_Gomory-Disjunctive-LiftProj:Disjunctive 0
CPXPARAM_MIP_Cuts_Gomory-Disjunctive-LiftProj:LiftProj 0
Instance6
Objective;Best_Integer;Best_Bound
405.5114;648.3061;405.5114
412.6168;648.3061;Cuts:8
416.7749;449.4074;Cuts:19
419.2781;449.4074;Cuts:15
420.5860;449.4074;Cuts:12
422.8806;449.4074;Cuts:11
423.2134;449.4074;Cuts:5
423.4875;449.4074;LiftProj:6
424.3400;449.4074;Cuts:4
425.4934;449.4074;LiftProj:5
426.0423;449.4074;LiftProj:3
426.1146;449.4074;Cuts:4
426.5534;441.1644;Cuts:5
426.9483;441.1644;LiftProj:3
427.3299;441.1644;LiftProj:3
428.0365;441.1644;LiftProj:2
428.1700;441.1644;LiftProj:3
428.2641;441.1644;LiftProj:3
428.4112;441.1644;LiftProj:3
428.5275;441.1644;LiftProj:3
428.5717;441.1644;LiftProj:3
428.6665;441.1644;LiftProj:3
428.6728;441.1644;LiftProj:2
430.1720;441.1644;430.7336
CPXPARAM_MIP_Cuts_Gomory-Disjunctive-LiftProj:Gomory 13
CPXPARAM_MIP_Cuts_Gomory-Disjunctive-LiftProj:Disjunctive 0
CPXPARAM_MIP_Cuts_Gomory-Disjunctive-LiftProj:LiftProj 3
Instance7
Objective;Best_Integer;Best_Bound
integral;425.0746;425.0746
CPXPARAM_MIP_Cuts_Gomory-Disjunctive-LiftProj:Gomory 0
CPXPARAM_MIP_Cuts_Gomory-Disjunctive-LiftProj:Disjunctive 0
CPXPARAM_MIP_Cuts_Gomory-Disjunctive-LiftProj:LiftProj 0
Instance8
Objective;Best_Integer;Best_Bound
484.8467;648.8417;484.8467
509.7426;648.8417;Cuts:8
518.8325;626.4130;Cuts:16
527.5094;626.4130;Cuts:19
532.8255;626.4130;Cuts:17
537.2579;626.4130;Cuts:12
539.3354;626.4130;Cuts:12
540.5869;626.4130;Cuts:7
541.4819;626.4130;LiftProj:6
542.9669;607.3004;Cuts:6
543.7703;607.3004;Cuts:7
544.5724;607.3004;LiftProj:6
545.3275;607.3004;LiftProj:6
546.0716;607.3004;LiftProj:6
546.6387;607.3004;LiftProj:6
546.8476;607.3004;LiftProj:8
547.1178;607.3004;LiftProj:8
548.1695;607.3004;LiftProj:5
548.8634;607.3004;LiftProj:6
549.1048;595.8307;LiftProj:7
549.2856;595.8307;LiftProj:5
549.8061;595.8307;Cuts:9
550.8475;595.8307;LiftProj:4
551.0325;595.8307;LiftProj:7
551.4597;589.5104;LiftProj:6
551.9507;589.5104;LiftProj:4
552.0845;589.5104;LiftProj:3
552.4925;589.5104;LiftProj:8
552.6404;589.5104;LiftProj:9
553.2001;589.5104;553.7764
CPXPARAM_MIP_Cuts_Gomory-Disjunctive-LiftProj:Gomory 19
CPXPARAM_MIP_Cuts_Gomory-Disjunctive-LiftProj:Disjunctive 1
CPXPARAM_MIP_Cuts_Gomory-Disjunctive-LiftProj:LiftProj 1
Instance9
Objective;Best_Integer;Best_Bound
integral;484.8467;484.8467
CPXPARAM_MIP_Cuts_Gomory-Disjunctive-LiftProj:Gomory 0
CPXPARAM_MIP_Cuts_Gomory-Disjunctive-LiftProj:Disjunctive 0
CPXPARAM_MIP_Cuts_Gomory-Disjunctive-LiftProj:LiftProj 0
Instance10
Objective;Best_Integer;Best_Bound
498.6071;845.6683;498.6071
504.9148;697.1349;Cuts:8
526.5844;648.8417;Cuts:16
531.9620;589.5104;Cuts:13
534.8383;589.5104;Cuts:15
537.5029;589.5104;Cuts:10
540.6307;589.5104;Cuts:10
542.3669;589.5104;Cuts:7
544.3270;589.5104;LiftProj:5
545.0740;589.5104;LiftProj:8
547.0251;589.5104;LiftProj:7
549.3304;589.5104;LiftProj:5
551.5495;589.5104;LiftProj:5
551.6660;589.5104;Cuts:5
551.8678;589.5104;LiftProj:8
552.0031;589.5104;LiftProj:4
553.1559;589.5104;LiftProj:5
553.4688;589.5104;LiftProj:6
553.6404;589.5104;LiftProj:6
554.4550;589.5104;LiftProj:5
554.8650;589.5104;LiftProj:4
555.1394;589.5104;LiftProj:5
555.2407;589.5104;LiftProj:5
555.4829;589.5104;Cuts:6
555.7036;589.5104;LiftProj:4
555.9174;589.5104;LiftProj:5
556.0009;589.5104;LiftProj:5
558.4818;589.5104;558.7205
CPXPARAM_MIP_Cuts_Gomory-Disjunctive-LiftProj:Gomory 21
CPXPARAM_MIP_Cuts_Gomory-Disjunctive-LiftProj:Disjunctive 0
CPXPARAM_MIP_Cuts_Gomory-Disjunctive-LiftProj:LiftProj 0
Instance11
Objective;Best_Integer;Best_Bound
integral;561.1585;561.1585
CPXPARAM_MIP_Cuts_Gomory-Disjunctive-LiftProj:Gomory 0
CPXPARAM_MIP_Cuts_Gomory-Disjunctive-LiftProj:Disjunctive 0
CPXPARAM_MIP_Cuts_Gomory-Disjunctive-LiftProj:LiftProj 0
Instance12
Objective;Best_Integer;Best_Bound
386.2283;534.4657;386.2283
391.1700;534.4657;Cuts:7
400.1816;521.2586;Cuts:16
407.6773;474.3633;Cuts:14
411.7269;474.3633;Cuts:13
417.7442;474.3633;Cuts:15
418.8642;474.3633;LiftProj:5
419.2536;474.3633;Cuts:4
419.7554;474.3633;Cuts:6
420.0529;474.3633;LiftProj:5
420.4583;474.3633;Cuts:6
421.1063;474.3633;LiftProj:4
421.5618;474.3633;LiftProj:4
421.6832;474.3633;LiftProj:3
421.8208;474.3633;LiftProj:4
421.8985;474.3633;LiftProj:4
421.9096;474.3633;LiftProj:3
421.9597;474.3633;LiftProj:4
421.9597;474.3633;422.4466
CPXPARAM_MIP_Cuts_Gomory-Disjunctive-LiftProj:Gomory 14
CPXPARAM_MIP_Cuts_Gomory-Disjunctive-LiftProj:Disjunctive 0
CPXPARAM_MIP_Cuts_Gomory-Disjunctive-LiftProj:LiftProj 3
Instance13
Objective;Best_Integer;Best_Bound
integral;389.1110;389.1110
CPXPARAM_MIP_Cuts_Gomory-Disjunctive-LiftProj:Gomory 0
CPXPARAM_MIP_Cuts_Gomory-Disjunctive-LiftProj:Disjunctive 0
CPXPARAM_MIP_Cuts_Gomory-Disjunctive-LiftProj:LiftProj 0
Instance14
Objective;Best_Integer;Best_Bound
386.2283;534.4657;386.2283
391.4708;534.4657;Cuts:8
398.7505;521.2586;Cuts:15
413.6983;474.3633;Cuts:19
420.4371;474.3633;Cuts:17
422.1849;474.3633;Cuts:15
425.2175;465.9177;Cuts:8
427.1075;465.9177;LiftProj:7
428.8213;465.9177;Cuts:13
429.6018;465.9177;LiftProj:8
430.5329;465.9177;LiftProj:8
431.3713;465.9177;LiftProj:11
431.7956;465.9177;LiftProj:6
432.2837;465.9177;LiftProj:10
432.6372;465.9177;LiftProj:6
433.6419;465.9177;Cuts:14
434.8850;465.9177;LiftProj:7
435.4186;465.9177;LiftProj:6
435.8154;465.9177;LiftProj:6
436.0342;465.9177;Cuts:9
436.6651;465.9177;LiftProj:7
436.6880;465.9177;LiftProj:10
436.9242;465.9177;LiftProj:8
437.5105;465.9177;LiftProj:7
437.5611;465.9177;LiftProj:3
437.6287;465.9177;439.6197
CPXPARAM_MIP_Cuts_Gomory-Disjunctive-LiftProj:Gomory 19
CPXPARAM_MIP_Cuts_Gomory-Disjunctive-LiftProj:Disjunctive 0
CPXPARAM_MIP_Cuts_Gomory-Disjunctive-LiftProj:LiftProj 0
Instance15
Objective;Best_Integer;Best_Bound
integral;410.1756;410.1756
CPXPARAM_MIP_Cuts_Gomory-Disjunctive-LiftProj:Gomory 0
CPXPARAM_MIP_Cuts_Gomory-Disjunctive-LiftProj:Disjunctive 0
CPXPARAM_MIP_Cuts_Gomory-Disjunctive-LiftProj:LiftProj 0
Instance16
Objective;Best_Integer;Best_Bound
417.5617;482.5302;417.5617
420.1512;482.5302;Cuts:6
426.2103;475.1344;Cuts:18
428.6727;465.5226;Cuts:13
430.9459;465.5226;Cuts:14
432.8663;465.5226;Cuts:12
433.4292;465.5226;LiftProj:4
434.3774;465.5226;LiftProj:4
434.6356;465.5226;Cuts:12
434.7123;465.5226;LiftProj:4
434.8855;465.5226;LiftProj:4
435.3898;465.5226;LiftProj:7
435.8135;465.5226;LiftProj:8
436.1176;465.5226;LiftProj:5
436.1772;465.5226;LiftProj:5
436.4037;465.5226;Cuts:8
436.4979;465.5226;LiftProj:6
436.7573;465.5226;Cuts:6
436.8936;465.5226;LiftProj:4
437.1470;465.5226;LiftProj:4
437.1540;465.5226;LiftProj:5
437.2400;465.5226;437.9524
CPXPARAM_MIP_Cuts_Gomory-Disjunctive-LiftProj:Gomory 14
CPXPARAM_MIP_Cuts_Gomory-Disjunctive-LiftProj:Disjunctive 0
CPXPARAM_MIP_Cuts_Gomory-Disjunctive-LiftProj:LiftProj 2
Instance17
Objective;Best_Integer;Best_Bound
integral;425.9937;425.9937
CPXPARAM_MIP_Cuts_Gomory-Disjunctive-LiftProj:Gomory 0
CPXPARAM_MIP_Cuts_Gomory-Disjunctive-LiftProj:Disjunctive 0
CPXPARAM_MIP_Cuts_Gomory-Disjunctive-LiftProj:LiftProj 0
Instance18
Objective;Best_Integer;Best_Bound
423.0032;673.4267;423.0032
424.6875;591.6412;Cuts:7
428.0040;465.5226;Cuts:11
431.7753;465.5226;Cuts:14
434.1216;465.5226;Cuts:16
436.5517;465.5226;Cuts:10
437.0725;465.5226;LiftProj:5
437.1761;465.5226;Cuts:6
437.2693;465.5226;Cuts:8
437.3535;465.5226;LiftProj:3
437.3753;465.5226;LiftProj:4
437.6020;465.5226;Cuts:6
437.7964;465.5226;LiftProj:3
437.8737;465.5226;Cuts:5
438.0103;465.5226;LiftProj:4
438.0588;465.5226;LiftProj:4
438.4183;465.5226;439.5265
CPXPARAM_MIP_Cuts_Gomory-Disjunctive-LiftProj:Gomory 9
CPXPARAM_MIP_Cuts_Gomory-Disjunctive-LiftProj:Disjunctive 0
CPXPARAM_MIP_Cuts_Gomory-Disjunctive-LiftProj:LiftProj 5
Instance19
Objective;Best_Integer;Best_Bound
integral;446.2379;446.2379
CPXPARAM_MIP_Cuts_Gomory-Disjunctive-LiftProj:Gomory 0
CPXPARAM_MIP_Cuts_Gomory-Disjunctive-LiftProj:Disjunctive 0
CPXPARAM_MIP_Cuts_Gomory-Disjunctive-LiftProj:LiftProj 0
Instance20
Objective;Best_Integer;Best_Bound
283.8374;499.7053;283.8374
286.5261;335.4671;Cuts:6
296.1357;335.4671;Cuts:15
299.7908;315.2212;Cuts:11
302.6281;315.2212;Cuts:10
303.9835;315.2212;Cuts:7
305.3194;315.2212;LiftProj:2
305.5828;315.2212;LiftProj:3
305.5900;315.2212;LiftProj:3
305.5995;315.2212;LiftProj:2
305.9548;315.2212;307.6445
CPXPARAM_MIP_Cuts_Gomory-Disjunctive-LiftProj:Gomory 7
CPXPARAM_MIP_Cuts_Gomory-Disjunctive-LiftProj:Disjunctive 0
CPXPARAM_MIP_Cuts_Gomory-Disjunctive-LiftProj:LiftProj 3
Instance21
Objective;Best_Integer;Best_Bound
integral;283.8374;283.8374
CPXPARAM_MIP_Cuts_Gomory-Disjunctive-LiftProj:Gomory 0
CPXPARAM_MIP_Cuts_Gomory-Disjunctive-LiftProj:Disjunctive 0
CPXPARAM_MIP_Cuts_Gomory-Disjunctive-LiftProj:LiftProj 0
Instance22
Objective;Best_Integer;Best_Bound
286.9244;502.7786;286.9244
295.3304;406.3795;Cuts:9
302.3762;392.9654;Cuts:12
303.0423;331.4363;Cuts:5
306.3033;331.4363;Cuts:6
309.4533;315.4732;Cuts:6
312.6659;315.4732;Fract:1
312.9176;315.4732;Cuts:4
312.9615;315.4732;LiftProj:2
313.7226;315.4732;LiftProj:2
314.5038;315.4732;LiftProj:2
314.5082;315.4732;LiftProj:1
314.5310;315.4732;LiftProj:1
cutoff;314.5310;116
CPXPARAM_MIP_Cuts_Gomory-Disjunctive-LiftProj:Gomory 6
CPXPARAM_MIP_Cuts_Gomory-Disjunctive-LiftProj:Disjunctive 0
CPXPARAM_MIP_Cuts_Gomory-Disjunctive-LiftProj:LiftProj 0
Instance23
Objective;Best_Integer;Best_Bound
integral;293.4740;293.4740
CPXPARAM_MIP_Cuts_Gomory-Disjunctive-LiftProj:Gomory 0
CPXPARAM_MIP_Cuts_Gomory-Disjunctive-LiftProj:Disjunctive 0
CPXPARAM_MIP_Cuts_Gomory-Disjunctive-LiftProj:LiftProj 0
Instance24
Objective;Best_Integer;Best_Bound
363.2658;473.7492;363.2658
366.2716;458.3613;Cuts:8
369.2855;444.0143;Cuts:10
373.9645;399.6484;Cuts:11
375.4791;399.6484;Cuts:8
376.2936;399.6484;Cuts:9
376.5662;399.6484;Cuts:4
376.8986;399.6484;Cuts:3
377.2041;399.6484;Cuts:6
377.3918;399.6484;LiftProj:2
377.5834;399.6484;LiftProj:3
377.9246;399.6484;LiftProj:2
378.0583;399.6484;LiftProj:3
378.0700;399.6484;LiftProj:4
378.0758;399.6484;LiftProj:1
378.0758;399.6484;378.0997
CPXPARAM_MIP_Cuts_Gomory-Disjunctive-LiftProj:Gomory 9
CPXPARAM_MIP_Cuts_Gomory-Disjunctive-LiftProj:Disjunctive 2
CPXPARAM_MIP_Cuts_Gomory-Disjunctive-LiftProj:LiftProj 1
Instance25
Objective;Best_Integer;Best_Bound
integral;372.4575;372.4575
CPXPARAM_MIP_Cuts_Gomory-Disjunctive-LiftProj:Gomory 0
CPXPARAM_MIP_Cuts_Gomory-Disjunctive-LiftProj:Disjunctive 0
CPXPARAM_MIP_Cuts_Gomory-Disjunctive-LiftProj:LiftProj 0
Instance26
Objective;Best_Integer;Best_Bound
372.1627;476.4585;372.1627
377.4827;476.4585;Cuts:6
381.5643;404.2019;Cuts:13
383.4093;399.6484;Cuts:14
385.0891;399.6484;Cuts:17
386.8536;399.6484;Cuts:8
386.9208;399.6484;Cuts:5
387.1590;399.6484;LiftProj:3
387.2975;399.6484;LiftProj:2
387.7090;399.6484;LiftProj:4
387.7272;399.6484;LiftProj:3
388.1085;399.6484;LiftProj:2
388.3477;399.6484;Cuts:5
388.4529;399.6484;LiftProj:3
388.4817;399.6484;LiftProj:2
388.7769;396.1684;389.2725
CPXPARAM_MIP_Cuts_Gomory-Disjunctive-LiftProj:Gomory 9
CPXPARAM_MIP_Cuts_Gomory-Disjunctive-LiftProj:Disjunctive 0
CPXPARAM_MIP_Cuts_Gomory-Disjunctive-LiftProj:LiftProj 2
Instance27
Objective;Best_Integer;Best_Bound
integral;385.0255;385.0255
CPXPARAM_MIP_Cuts_Gomory-Disjunctive-LiftProj:Gomory 0
CPXPARAM_MIP_Cuts_Gomory-Disjunctive-LiftProj:Disjunctive 0
CPXPARAM_MIP_Cuts_Gomory-Disjunctive-LiftProj:LiftProj 0
Instance28
Objective;Best_Integer;Best_Bound
601.4591;872.5219;601.4591
604.1563;737.8283;Cuts:5
616.1083;696.2579;Cuts:15
620.5243;652.5589;Cuts:19
623.5183;652.5589;Cuts:14
629.4319;652.5589;Cuts:10
630.1878;652.5589;Cuts:5
630.8020;652.5589;LiftProj:3
631.8865;652.5589;LiftProj:3
632.2426;652.5589;LiftProj:3
632.5085;652.5589;LiftProj:4
632.9835;652.5589;LiftProj:5
633.4988;652.5589;LiftProj:3
633.6608;652.5589;LiftProj:2
633.8640;652.5589;LiftProj:3
633.9517;652.5589;LiftProj:3
633.9964;652.5589;LiftProj:3
634.5243;652.5589;635.5018
CPXPARAM_MIP_Cuts_Gomory-Disjunctive-LiftProj:Gomory 14
CPXPARAM_MIP_Cuts_Gomory-Disjunctive-LiftProj:Disjunctive 0
CPXPARAM_MIP_Cuts_Gomory-Disjunctive-LiftProj:LiftProj 3
Instance29
Objective;Best_Integer;Best_Bound
integral;596.9704;596.9704
CPXPARAM_MIP_Cuts_Gomory-Disjunctive-LiftProj:Gomory 0
CPXPARAM_MIP_Cuts_Gomory-Disjunctive-LiftProj:Disjunctive 0
CPXPARAM_MIP_Cuts_Gomory-Disjunctive-LiftProj:LiftProj 0
Instance30
Objective;Best_Integer;Best_Bound
601.4591;877.2624;601.4591
603.7062;696.2579;Disjcuts:4
613.9826;696.2579;Cuts:15
621.5924;652.5589;Cuts:18
630.5324;652.5589;Cuts:11
631.7199;652.5589;Cuts:13
634.7712;652.5589;Cuts:6
635.0842;652.5589;LiftProj:2
635.2541;652.5589;LiftProj:2
635.6008;652.5589;LiftProj:3
636.4387;652.5589;LiftProj:1
636.8004;652.5589;LiftProj:5
637.6485;652.5589;Cuts:4
637.7764;652.5589;LiftProj:3
638.0587;652.5589;LiftProj:2
638.3171;652.5589;LiftProj:3
638.4078;652.5589;LiftProj:4
638.4145;652.5589;LiftProj:6
cutoff;638.4145;171
CPXPARAM_MIP_Cuts_Gomory-Disjunctive-LiftProj:Gomory 11
CPXPARAM_MIP_Cuts_Gomory-Disjunctive-LiftProj:Disjunctive 2
CPXPARAM_MIP_Cuts_Gomory-Disjunctive-LiftProj:LiftProj 2
Instance31
Objective;Best_Integer;Best_Bound
integral;601.4591;601.4591
CPXPARAM_MIP_Cuts_Gomory-Disjunctive-LiftProj:Gomory 0
CPXPARAM_MIP_Cuts_Gomory-Disjunctive-LiftProj:Disjunctive 0
CPXPARAM_MIP_Cuts_Gomory-Disjunctive-LiftProj:LiftProj 0
Instance32
Objective;Best_Integer;Best_Bound
285.1772;538.6067;285.1772
296.8300;527.4518;Cuts:7
311.8492;398.4261;Cuts:12
321.0112;392.1998;Cuts:10
329.3497;392.1998;Cuts:9
333.2812;392.1998;Cuts:8
336.5504;392.1998;Cuts:6
339.2944;392.1998;Cuts:7
339.5532;392.1998;Cuts:5
339.9210;392.1998;LiftProj:4
340.4178;392.1998;LiftProj:6
340.7779;392.1998;LiftProj:4
340.9541;392.1998;Cuts:9
341.1718;392.1998;LiftProj:4
341.1836;392.1998;LiftProj:5
341.2936;392.1998;LiftProj:4
341.4390;392.1998;Cuts:5
341.6013;392.1998;LiftProj:4
341.7760;392.1998;LiftProj:4
342.0148;392.1998;LiftProj:4
342.3002;392.1998;LiftProj:4
342.3510;392.1998;LiftProj:4
343.9744;392.1998;344.0390
CPXPARAM_MIP_Cuts_Gomory-Disjunctive-LiftProj:Gomory 14
CPXPARAM_MIP_Cuts_Gomory-Disjunctive-LiftProj:Disjunctive 0
CPXPARAM_MIP_Cuts_Gomory-Disjunctive-LiftProj:LiftProj 5
Instance33
Objective;Best_Integer;Best_Bound
304.9439;671.2898;304.9439
integral;304.9870;304.9870
CPXPARAM_MIP_Cuts_Gomory-Disjunctive-LiftProj:Gomory 0
CPXPARAM_MIP_Cuts_Gomory-Disjunctive-LiftProj:Disjunctive 0
CPXPARAM_MIP_Cuts_Gomory-Disjunctive-LiftProj:LiftProj 0
Instance34
Objective;Best_Integer;Best_Bound
304.9439;548.6165;304.9439
307.5007;522.3973;Cuts:8
317.6879;462.2964;Cuts:13
327.5818;398.4261;Cuts:15
335.9668;392.1998;Cuts:11
343.0509;392.1998;Cuts:9
343.8070;392.1998;Cuts:5
344.1047;392.1998;LiftProj:5
345.2513;392.1998;Cuts:6
345.5492;392.1998;LiftProj:6
346.0184;392.1998;Cuts:5
346.7846;392.1998;LiftProj:6
348.2902;392.1998;LiftProj:4
349.6005;392.1998;Cuts:6
350.3893;392.1998;LiftProj:6
352.4965;392.1998;Cuts:6
353.1630;392.1998;LiftProj:6
353.7875;392.1998;LiftProj:4
354.0567;392.1998;LiftProj:9
354.7901;392.1998;LiftProj:5
355.2505;392.1998;LiftProj:6
355.7322;392.1998;LiftProj:4
356.0217;392.1998;LiftProj:12
356.2388;392.1998;LiftProj:5
356.3945;392.1998;LiftProj:4
356.8277;392.1998;LiftProj:6
357.0428;392.1998;Cuts:9
357.1879;392.1998;LiftProj:5
357.4575;392.1998;LiftProj:5
357.6150;392.1998;LiftProj:5
358.4289;392.1998;LiftProj:5
358.5271;392.1998;Cuts:12
358.5812;392.1998;LiftProj:6
359.9328;392.1998;360.5614
CPXPARAM_MIP_Cuts_Gomory-Disjunctive-LiftProj:Gomory 20
CPXPARAM_MIP_Cuts_Gomory-Disjunctive-LiftProj:Disjunctive 1
CPXPARAM_MIP_Cuts_Gomory-Disjunctive-LiftProj:LiftProj 2
Instance35
Objective;Best_Integer;Best_Bound
integral;363.5184;363.5184
CPXPARAM_MIP_Cuts_Gomory-Disjunctive-LiftProj:Gomory 0
CPXPARAM_MIP_Cuts_Gomory-Disjunctive-LiftProj:Disjunctive 0
CPXPARAM_MIP_Cuts_Gomory-Disjunctive-LiftProj:LiftProj 0
Instance36
Objective;Best_Integer;Best_Bound
431.0120;643.3001;431.0120
434.0791;591.9356;Cuts:7
441.3766;591.9356;Cuts:10
446.4636;534.0033;Cuts:17
447.6343;497.5652;Cuts:9
449.5597;497.5652;Cuts:13
451.4553;497.5652;Cuts:10
451.8536;497.5652;LiftProj:5
453.1649;497.5652;Cuts:6
454.1369;497.5652;Cuts:8
454.8592;497.5652;Cuts:6
455.3165;497.5652;Cuts:7
456.0593;497.5652;LiftProj:6
456.3933;497.5652;LiftProj:7
458.0005;497.5652;LiftProj:6
458.4328;497.5652;LiftProj:6
458.8329;497.5652;LiftProj:6
458.8601;497.5652;LiftProj:6
459.1586;497.5652;LiftProj:5
459.4956;497.5652;LiftProj:6
459.6897;497.5652;LiftProj:6
459.7784;497.5652;LiftProj:5
460.5562;497.5652;460.7341
CPXPARAM_MIP_Cuts_Gomory-Disjunctive-LiftProj:Gomory 18
CPXPARAM_MIP_Cuts_Gomory-Disjunctive-LiftProj:Disjunctive 0
CPXPARAM_MIP_Cuts_Gomory-Disjunctive-LiftProj:LiftProj 1
Instance37
Objective;Best_Integer;Best_Bound
integral;431.0120;431.0120
CPXPARAM_MIP_Cuts_Gomory-Disjunctive-LiftProj:Gomory 0
CPXPARAM_MIP_Cuts_Gomory-Disjunctive-LiftProj:Disjunctive 0
CPXPARAM_MIP_Cuts_Gomory-Disjunctive-LiftProj:LiftProj 0
Instance38
Objective;Best_Integer;Best_Bound
431.2487;644.4799;431.2487
434.3898;591.9356;Cuts:5
440.7658;591.9356;Cuts:17
448.1340;534.0033;Cuts:12
450.2666;504.0961;Cuts:14
453.3614;504.0961;Cuts:9
454.2060;504.0961;LiftProj:5
454.7319;504.0961;Cuts:7
455.4883;504.0961;LiftProj:6
456.4143;504.0961;LiftProj:5
456.9571;504.0961;Cuts:11
458.3693;504.0961;LiftProj:8
458.9688;504.0961;LiftProj:10
459.9204;504.0961;LiftProj:7
460.8323;504.0961;LiftProj:6
461.8936;504.0961;LiftProj:5
462.1507;497.5652;LiftProj:7
462.4558;497.5652;LiftProj:6
463.4327;497.5652;LiftProj:5
463.5189;497.5652;LiftProj:3
463.6328;497.5652;LiftProj:4
463.6811;497.5652;LiftProj:4
463.8827;497.5652;465.2129
CPXPARAM_MIP_Cuts_Gomory-Disjunctive-LiftProj:Gomory 16
CPXPARAM_MIP_Cuts_Gomory-Disjunctive-LiftProj:Disjunctive 0
CPXPARAM_MIP_Cuts_Gomory-Disjunctive-LiftProj:LiftProj 1
Instance39
Objective;Best_Integer;Best_Bound
cutoff;451.8439;34
cutoff;451.8439;34
CPXPARAM_MIP_Cuts_Gomory-Disjunctive-LiftProj:Gomory 0
CPXPARAM_MIP_Cuts_Gomory-Disjunctive-LiftProj:Disjunctive 0
CPXPARAM_MIP_Cuts_Gomory-Disjunctive-LiftProj:LiftProj 0
